(set-logic ALL)
(declare-fun i1 () Int)
(declare-fun it5 () Int)
(declare-fun it6 () Int)
(declare-fun i2 () Int)
(declare-fun it7 () Int)
(declare-fun i3 () Int)
(declare-fun i4 () Int)
(declare-fun it8 () Int)
(declare-fun it9 () Int)
(declare-fun i5 () Int)
(declare-fun it10 () Int)
(declare-fun i6 () Int)
(declare-fun it11 () Int)
(declare-fun it12 () Int)
(declare-fun i8 () Int)
(declare-fun it13 () Int)
(declare-fun i9 () Int)
(declare-fun i10 () Int)
(declare-fun it14 () Int)
(declare-fun it213 () Int)
(declare-fun it4 () Int)
(declare-fun it2 () Int)
(declare-fun it217 () Int)
(declare-fun it218 () Int)
(declare-fun it219 () Int)
(declare-fun it220 () Int)
(declare-fun it221 () Int)
(declare-fun it222 () Int)
(declare-fun it223 () Int)
(declare-fun it224 () Int)
(declare-fun it225 () Int)
(declare-fun it226 () Int)
(declare-fun it233 () Int)
(declare-fun it234 () Int)
(declare-fun it235 () Int)
(declare-fun it236 () Int)
(declare-fun it237 () Int)
(declare-fun it238 () Int)
(declare-fun it239 () Int)
(declare-fun it240 () Int)
(declare-fun it241 () Int)
(declare-fun it242 () Int)
(declare-fun it245 () Int)
(declare-fun it246 () Int)
(declare-fun it247 () Int)
(declare-fun it248 () Int)
(declare-fun it249 () Int)
(declare-fun it250 () Int)
(declare-fun it251 () Int)
(declare-fun it252 () Int)
(declare-fun it253 () Int)
(declare-fun it254 () Int)
(declare-fun it257 () Int)
(declare-fun it258 () Int)
(declare-fun it259 () Int)
(declare-fun it260 () Int)
(declare-fun it261 () Int)
(declare-fun it262 () Int)
(declare-fun it229 () Int)
(declare-fun it263 () Int)
(declare-fun it264 () Int)
(declare-fun it265 () Int)
(declare-fun it266 () Int)
(declare-fun it271 () Int)
(declare-fun it272 () Int)
(declare-fun it273 () Int)
(declare-fun it274 () Int)
(declare-fun it275 () Int)
(declare-fun it276 () Int)
(declare-fun it277 () Int)
(declare-fun it278 () Int)
(declare-fun it279 () Int)
(declare-fun it280 () Int)
(declare-fun it385 () Int)
(declare-fun it386 () Int)
(declare-fun it387 () Int)
(declare-fun it388 () Int)
(declare-fun it389 () Int)
(declare-fun it390 () Int)
(declare-fun it391 () Int)
(declare-fun it392 () Int)
(declare-fun it393 () Int)
(declare-fun it394 () Int)
(declare-fun it397 () Int)
(declare-fun it398 () Int)
(declare-fun it399 () Int)
(declare-fun it228 () Int)
(declare-fun it400 () Int)
(declare-fun it401 () Int)
(declare-fun it402 () Int)
(declare-fun it403 () Int)
(declare-fun it404 () Int)
(declare-fun it405 () Int)
(declare-fun it406 () Int)
(declare-fun it411 () Int)
(declare-fun it412 () Int)
(declare-fun it413 () Int)
(declare-fun it414 () Int)
(declare-fun it415 () Int)
(declare-fun it416 () Int)
(declare-fun it417 () Int)
(declare-fun it418 () Int)
(declare-fun it419 () Int)
(declare-fun it420 () Int)
(declare-fun it423 () Int)
(declare-fun it424 () Int)
(declare-fun it425 () Int)
(declare-fun it426 () Int)
(declare-fun it427 () Int)
(declare-fun it428 () Int)
(declare-fun it429 () Int)
(declare-fun it430 () Int)
(declare-fun it431 () Int)
(declare-fun it432 () Int)
(assert (= (+ i1 (- 1)) 0))
(assert (= (+ it5 (- 13)) 0))
(assert (= (+ (* i2 (- 1)) it6 (- 12)) 0))
(assert (= (+ (* i3 (- 1)) it7) 0))
(assert (= (+ it8 (* i4 (- 1))) 0))
(assert (= (+ (* i5 (- 1)) it9) 0))
(assert (= (+ (* i6 (- 1)) it10) 0))
(assert (= (+ it11 (- 1)) 0))
(assert (= (+ (* i8 (- 1)) it12) 0))
(assert (= (+ (* i9 (- 1)) it13) 0))
(assert (= (+ it14 (* i10 (- 1))) 0))
(assert (let ((a!1 (+ (+ 0 it14)
              (* (+ 0 it11) (exp 2 (+ it213 (- 1))) (+ 0 (- 2)))))
      (a!2 (>= (+ (+ it14 (* it11 (- 2))) (- 1)) 0)))
  (and (> it2 0)
       (> it14 0)
       (>= (+ a!1 (+ 0 (- 1))) (+ 0 0))
       a!2
       (>= (+ (* it5 (- 1)) 13) 0)
       (>= (+ (* it11 2) (- 1)) 0)
       (>= (+ it11 (- 1)) 0)
       (>= (+ it14 (* it11 (- 1))) 0)
       (>= (* it4 (- 1)) 0)
       (>= (+ it5 (- 13)) 0)
       (>= (* it11 2) 0)
       (> it11 0)
       (>= a!1 (+ 0 0))
       (>= (+ it14 (* it11 (- 2))) 0)
       (>= (+ it213 (- 1)) 0))))
(assert (= (+ (* it5 (- 1)) it217) 0))
(assert (= (+ (* it213 (- 14)) (* it6 (- 1)) it218) 0))
(assert (= (+ it219 (* it4 (- 1))) 0))
(assert (let ((a!1 (+ (+ 0 it220)
              (* (+ 0 it11) (exp 2 (+ it213 (- 1))) (+ 0 (- 2))))))
  (= a!1 (+ 0 0))))
(assert (let ((a!1 (+ (* (+ 0 it11) (exp 2 (+ it213 (- 1))) (+ 0 (- 2)))
              (+ 0 it221)
              (+ 0 (- 1)))))
  (= a!1 (+ 0 0))))
(assert (= (+ (* it2 (- 1)) it222) 0))
(assert (= (+ (+ 0 it223) (* (+ 0 it11) (exp 2 it213) (+ 0 (- 1))))
   (+ 0 0)))
(assert (let ((a!1 (+ (* (+ 0 it11) (exp 2 (+ it213 (- 1))) (+ 0 (- 2)))
              (+ 0 it224))))
  (= a!1 (+ 0 0))))
(assert (let ((a!1 (+ (* (+ 0 it11) (exp 2 (+ it213 (- 1))) (+ 0 (- 2)))
              (+ 0 it225))))
  (= a!1 (+ 0 0))))
(assert (= (+ (* it14 (- 1)) it226) 0))
(assert (and (= (+ it217 (- 13)) 0) (> it226 0) (>= (+ it223 (- 1)) 0)))
(assert (= (+ it233 (- 14)) 0))
(assert (= (+ it234 (* it218 (- 1)) (- 1)) 0))
(assert (= (+ it235 (* it219 (- 1))) 0))
(assert (= (+ it236 (* it220 (- 1))) 0))
(assert (= (+ it237 (* it221 (- 1))) 0))
(assert (= (+ it238 (* it222 (- 1))) 0))
(assert (= (+ it239 (* it223 (- 1))) 0))
(assert (= (+ it240 (* it224 (- 1))) 0))
(assert (= (+ (* it225 (- 1)) it241) 0))
(assert (= (+ (* it226 (- 1)) it242) 0))
(assert (and (<= (+ (* it239 2) (* it242 (- 1))) 0) (= (+ it233 (- 14)) 0)))
(assert (= (+ it245 (- 16)) 0))
(assert (= (+ it246 (* it234 (- 1)) (- 1)) 0))
(assert (= (+ it247 (* it235 (- 1))) 0))
(assert (= (+ it248 (* it239 (- 2))) 0))
(assert (= (+ (* it239 (- 2)) it249 (- 1)) 0))
(assert (= (+ it250 (* it238 (- 1))) 0))
(assert (= (+ (* it239 (- 1)) it251) 0))
(assert (= (+ it252 (* it240 (- 1))) 0))
(assert (= (+ it253 (* it241 (- 1))) 0))
(assert (= (+ (* it242 (- 1)) it254) 0))
(assert (and (>= (+ it248 (- 1)) 0)
     (<= (+ it248 (* it254 (- 1))) 0)
     (= (+ it245 (- 16)) 0)))
(assert (= (+ it257 (- 20)) 0))
(assert (= (+ it258 (* it246 (- 1)) (- 3)) 0))
(assert (= (+ it259 (* it247 (- 1))) 0))
(assert (= (+ (* it248 (- 1)) it260) 0))
(assert (= (+ it261 (* it249 (- 1))) 0))
(assert (= (+ (* it229 (- 1)) it262) 0))
(assert (= (+ it263 (* it251 (- 1))) 0))
(assert (= (+ it264 (* it252 (- 1))) 0))
(assert (= (+ it265 (* it253 (- 1))) 0))
(assert (= (+ it266 (* it254 (- 1))) 0))
(assert (and (> it262 0) (= (+ it257 (- 20)) 0)))
(assert (= (+ it271 (- 17)) 0))
(assert (= (+ (* it258 (- 1)) it272 (- 1)) 0))
(assert (= (+ (* it259 (- 1)) it273) 0))
(assert (= (+ it274 (* it260 (- 1))) 0))
(assert (= (+ (* it261 (- 1)) it275) 0))
(assert (= (+ (* it262 (- 1)) it276) 0))
(assert (= (+ it277 (* it263 (- 1))) 0))
(assert (= (+ it278 (* it260 (- 1))) 0))
(assert (= (+ (* it265 (- 1)) it279) 0))
(assert (= (+ it280 (* it266 (- 1))) 0))
(assert (and (<= (+ (* it280 (- 1)) it275) 0) (= (+ it271 (- 17)) 0)))
(assert (= (+ it385 (- 21)) 0))
(assert (= (+ (* it272 (- 1)) it386 (- 1)) 0))
(assert (= (+ it387 (* it273 (- 1))) 0))
(assert (= (+ (* it274 (- 1)) it388) 0))
(assert (= (+ (* it275 (- 1)) it389) 0))
(assert (= (+ it390 (* it276 (- 1))) 0))
(assert (= (+ (* it277 (- 1)) it391) 0))
(assert (= (+ (* it278 (- 1)) it392) 0))
(assert (= (+ (* it279 (- 1)) it393) 0))
(assert (= (+ (* it280 (- 1)) it394) 0))
(assert (and (= (+ it385 (- 21)) 0)
     (>= (+ it389 (- 1)) 0)
     (<= (+ (* it394 (- 1)) it389) 0)))
(assert (= (+ it397 (- 25)) 0))
(assert (= (+ it398 (* it386 (- 1)) (- 3)) 0))
(assert (= (+ (* it228 (- 1)) it399) 0))
(assert (= (+ it400 (* it388 (- 1))) 0))
(assert (= (+ it401 (* it389 (- 1))) 0))
(assert (= (+ (* it390 (- 1)) it402) 0))
(assert (= (+ it403 (* it391 (- 1))) 0))
(assert (= (+ it404 (* it392 (- 1))) 0))
(assert (= (+ it405 (* it393 (- 1))) 0))
(assert (= (+ it406 (* it394 (- 1))) 0))
(assert (and (> it399 0) (= (+ it397 (- 25)) 0)))
(assert (= (+ it411 (- 22)) 0))
(assert (= (+ (* it398 (- 1)) it412 (- 1)) 0))
(assert (= (+ it413 (* it399 (- 1))) 0))
(assert (= (+ (* it400 (- 1)) it414) 0))
(assert (= (+ (* it401 (- 1)) it415) 0))
(assert (= (+ it416 (* it402 (- 1))) 0))
(assert (= (+ (* it403 (- 1)) it417) 0))
(assert (= (+ (* it404 (- 1)) it418) 0))
(assert (= (+ it419 (* it401 (- 1))) 0))
(assert (= (+ (* it406 (- 1)) it420) 0))
(assert (and (< (+ (* it419 (- 1)) it417) 0) (= (+ it411 (- 22)) 0)))
(assert (= (+ it423 (- 26)) 0))
(assert (= (+ it424 (* it412 (- 1)) (- 1)) 0))
(assert (= (+ it425 (* it413 (- 1))) 0))
(assert (= (+ it426 (* it414 (- 1))) 0))
(assert (= (+ it427 (* it415 (- 1))) 0))
(assert (= (+ (* it416 (- 1)) it428) 0))
(assert (= (+ it429 (* it417 (- 1))) 0))
(assert (= (+ it430 (* it418 (- 1))) 0))
(assert (= (+ (* it419 (- 1)) it431) 0))
(assert (= (+ it432 (* it420 (- 1))) 0))
(check-sat)
